
Gurobi 10.0.1 (win64) logging started Sat Sep 16 16:57:06 2023

Set parameter LogFile to value "./results-heuristic-start//log/Fattahi_setup_03_modified_old_makespan.log"
Gurobi Optimizer version 10.0.1 build v10.0.1rc0 (win64)

CPU model: AMD Ryzen 7 3700X 8-Core Processor, instruction set [SSE2|AVX|AVX2]
Thread count: 8 physical cores, 16 logical processors, using up to 16 threads

Optimize a model with 83 rows, 57 columns and 316 nonzeros
Model fingerprint: 0xdf8a13f7
Variable types: 10 continuous, 47 integer (46 binary)
Coefficient statistics:
  Matrix range     [1e+00, 1e+06]
  Objective range  [1e+00, 1e+00]
  Bounds range     [1e+00, 1e+00]
  RHS range        [1e+00, 3e+06]

User MIP start did not produce a new incumbent solution
User MIP start violates constraint initial_start_time_job0_stage0_machine0_constraint by 420.000000000

Presolve removed 19 rows and 25 columns
Presolve time: 0.00s
Presolved: 64 rows, 32 columns, 264 nonzeros
Variable types: 10 continuous, 22 integer (21 binary)
Found heuristic solution: objective 3530.0000000
Found heuristic solution: objective 3150.0000000
Found heuristic solution: objective 3019.0000000
Found heuristic solution: objective 2994.0000000

Root relaxation: objective 1.864002e+03, 25 iterations, 0.00 seconds (0.00 work units)

    Nodes    |    Current Node    |     Objective Bounds      |     Work
 Expl Unexpl |  Obj  Depth IntInf | Incumbent    BestBd   Gap | It/Node Time

     0     0 1864.00225    0   12 2994.00000 1864.00225  37.7%     -    0s
     0     0 1874.00000    0   11 2994.00000 1874.00000  37.4%     -    0s
Another try with MIP start
H    0     0                    2907.0000000 1874.00000  35.5%     -    0s
H    0     0                    2722.0000000 1874.00000  31.2%     -    0s
     0     0 1882.00575    0   14 2722.00000 1882.00575  30.9%     -    0s
     0     0 2025.57623    0    6 2722.00000 2025.57623  25.6%     -    0s
     0     0 2204.00575    0    6 2722.00000 2204.00575  19.0%     -    0s
     0     0 2331.00000    0    6 2722.00000 2331.00000  14.4%     -    0s
H    0     0                    2620.0000000 2331.00000  11.0%     -    0s
     0     0 2336.00000    0    7 2620.00000 2336.00000  10.8%     -    0s
     0     0 2336.00445    0    7 2620.00000 2336.00445  10.8%     -    0s
     0     0 2535.00000    0    7 2620.00000 2535.00000  3.24%     -    0s
     0     0 2553.00000    0    7 2620.00000 2553.00000  2.56%     -    0s
     0     0 2567.00000    0    6 2620.00000 2567.00000  2.02%     -    0s
     0     0 2620.00000    0    6 2620.00000 2620.00000  0.00%     -    0s

Cutting planes:
  Learned: 5
  Gomory: 2
  Implied bound: 1
  MIR: 2
  Flow cover: 3
  RLT: 3
  Relax-and-lift: 1

Explored 1 nodes (142 simplex iterations) in 0.02 seconds (0.01 work units)
Thread count was 16 (of 16 available processors)

Solution count 7: 2620 2722 2907 ... 3530

Optimal solution found (tolerance 1.00e-04)
Best objective 2.620000000000e+03, best bound 2.620000000000e+03, gap 0.0000%
Warning: constraint name "precedence between 0,1 to 0,0 if x_[j,l,h,z,i]=1" has a space
Warning: constraint name "precedence between 0,1 to 0,0 if x_[j,l,h,z,i]=1" has a space
Warning: default constraint names used to write mps file
